results-heuristic-start/sol/URT_09_makespan.sol
# Solution for model JobShopModel
# Objective value = 136
y[0,0,1] 1
y[0,1,1] 1
y[0,2,0] 1
y[1,0,1] 1
y[1,1,2] 1
y[1,2,1] 1
y[2,0,1] 1
y[2,1,1] 1
y[2,2,1] 1
x[0,0,0,0] 0
x[0,0,0,1] 1
x[0,0,0,2] 0
x[0,0,1,0] 1
x[0,0,1,1] 0
x[0,0,1,2] 1
x[0,0,2,0] 0
x[0,0,2,1] 0
x[0,0,2,2] 0
x[0,1,0,0] 0
x[0,1,0,1] 0
x[0,1,0,2] 0
x[0,1,1,0] 0
x[0,1,1,1] 0
x[0,1,1,2] 0
x[0,1,2,0] 0
x[0,1,2,1] 0
x[0,1,2,2] 0
x[0,2,0,0] 0
x[0,2,0,1] 0
x[0,2,0,2] 0
x[0,2,1,0] 0
x[0,2,1,1] 0
x[0,2,1,2] 0
x[0,2,2,0] 0
x[0,2,2,1] 0
x[0,2,2,2] 0
x[1,0,0,0] 0
x[1,0,0,1] 0
x[1,0,0,2] 0
x[1,0,1,0] 0
x[1,0,1,1] 0
x[1,0,1,2] 1
x[1,0,2,0] 0
x[1,0,2,1] 0
x[1,0,2,2] 0
x[1,1,0,0] 0
x[1,1,0,1] 0
x[1,1,0,2] 0
x[1,1,1,0] 0
x[1,1,1,1] 0
x[1,1,1,2] 0
x[1,1,2,0] 0
x[1,1,2,1] 0
x[1,1,2,2] 0
x[1,2,0,0] 0
x[1,2,0,1] 0
x[1,2,0,2] 0
x[1,2,1,0] 0
x[1,2,1,1] 0
x[1,2,1,2] 0
x[1,2,2,0] 0
x[1,2,2,1] 0
x[1,2,2,2] 0
x[2,0,0,0] 0
x[2,0,0,1] 0
x[2,0,0,2] 0
x[2,0,1,0] 0
x[2,0,1,1] 0
x[2,0,1,2] 0
x[2,0,2,0] 0
x[2,0,2,1] 1
x[2,0,2,2] 1
x[2,1,0,0] 0
x[2,1,0,1] 0
x[2,1,0,2] 0
x[2,1,1,0] 0
x[2,1,1,1] 0
x[2,1,1,2] 0
x[2,1,2,0] 0
x[2,1,2,1] 0
x[2,1,2,2] 1
x[2,2,0,0] 0
x[2,2,0,1] 0
x[2,2,0,2] 0
x[2,2,1,0] 0
x[2,2,1,1] 0
x[2,2,1,2] 0
x[2,2,2,0] 0
x[2,2,2,1] 0
x[2,2,2,2] 0
s[0,0,1] 31
s[0,1,1] 4
s[0,2,0] 1
s[1,0,1] 15
s[1,1,2] 2
s[1,2,1] 9
s[2,0,1] 78
s[2,1,1] 59
s[2,2,1] 43
Z_FO 136
