results/log/URT_09_makespan.log

Gurobi 10.0.1 (win64) logging started Sat Aug 26 22:38:18 2023

Set parameter LogFile to value "results//log/URT_09_makespan.log"
Gurobi Optimizer version 10.0.1 build v10.0.1rc0 (win64)

CPU model: AMD Ryzen 7 3700X 8-Core Processor, instruction set [SSE2|AVX|AVX2]
Thread count: 8 physical cores, 16 logical processors, using up to 16 threads

Optimize a model with 83 rows, 100 columns and 278 nonzeros
Model fingerprint: 0xcd910c64
Variable types: 9 continuous, 91 integer (90 binary)
Coefficient statistics:
  Matrix range     [1e+00, 1e+06]
  Objective range  [1e+00, 1e+00]
  Bounds range     [1e+00, 1e+00]
  RHS range        [1e+00, 3e+06]
Found heuristic solution: objective 152.0000000
Presolve removed 43 rows and 75 columns
Presolve time: 0.00s
Presolved: 40 rows, 25 columns, 114 nonzeros
Variable types: 8 continuous, 17 integer (16 binary)

Root relaxation: objective 5.500000e+01, 13 iterations, 0.00 seconds (0.00 work units)

    Nodes    |    Current Node    |     Objective Bounds      |     Work
 Expl Unexpl |  Obj  Depth IntInf | Incumbent    BestBd   Gap | It/Node Time

     0     0   55.00000    0    9  152.00000   55.00000  63.8%     -    0s
H    0     0                     103.0000000   62.00000  39.8%     -    0s
H    0     0                     101.0000000   62.00000  38.6%     -    0s
H    0     0                      98.0000000   62.00000  36.7%     -    0s
     0     0   62.00009    0    9   98.00000   62.00009  36.7%     -    0s
     0     0   71.00000    0    7   98.00000   71.00000  27.6%     -    0s
     0     0   79.00000    0    8   98.00000   79.00000  19.4%     -    0s
     0     0   92.00000    0    3   98.00000   92.00000  6.12%     -    0s
     0     0   98.00000    0    3   98.00000   98.00000  0.00%     -    0s

Cutting planes:
  Learned: 1
  Implied bound: 2
  RLT: 1
  Relax-and-lift: 2

Explored 1 nodes (86 simplex iterations) in 0.05 seconds (0.00 work units)
Thread count was 16 (of 16 available processors)

Solution count 5: 98 98 101 ... 152

Optimal solution found (tolerance 1.00e-04)
Best objective 9.800000000000e+01, best bound 9.800000000000e+01, gap 0.0000%
Warning: constraint name "precedence between 0,2 to 0,0 if x_[j,l,h,z,i]=1" has a space
Warning: constraint name "precedence between 0,2 to 0,0 if x_[j,l,h,z,i]=1" has a space
Warning: default constraint names used to write mps file
